12
0 100 27 29 49 13 32 24 23 84 19 12 
100 0 93 6 89 39 87 98 6 68 73 85 
27 93 0 63 48 6 44 26 87 76 36 20 
29 6 63 0 5 45 60 88 71 16 26 82 
49 89 48 5 0 82 59 67 0 70 63 39 
13 39 6 45 82 0 11 57 86 52 85 64 
32 87 44 60 59 11 0 80 100 95 7 46 
24 98 26 88 67 57 80 0 85 64 62 70 
23 6 87 71 0 86 100 85 0 58 27 36 
84 68 76 16 70 52 95 64 58 0 43 45 
19 73 36 26 63 85 7 62 27 43 0 31 
12 85 20 82 39 64 46 70 36 45 31 0 
RRRBBBBRBRRB
